c complement version
c FILE:  gen200_p0.9_44.b
c
c SOURCE: Laura Sanchis (laura@cs.colgate.edu)
c
c DESCRIPTION: Artificially generated instance with large,
c              known embedded clique
c
c 200 vertices 17910 edges 44 max clique
c 200 1990 156 2192 151248 22
p edges 200 1990
e 1 129
e 1 133
e 1 8
e 1 13
e 1 28
e 1 29
e 1 31
e 1 32
e 1 34
e 1 39
e 1 171
e 1 47
e 1 179
e 1 55
e 1 59
e 1 63
e 1 195
e 1 196
e 1 77
e 1 79
e 1 82
e 1 83
e 1 115
e 1 126
e 2 32
e 2 98
e 2 147
e 2 37
e 2 42
e 2 83
e 2 154
e 2 92
e 2 31
e 3 65
e 3 162
e 3 91
e 3 68
e 3 165
e 3 7
e 3 72
e 3 73
e 3 111
e 3 172
e 3 45
e 3 13
e 3 118
e 3 79
e 3 156
e 3 94
e 4 96
e 4 181
e 4 66
e 4 123
e 4 139
e 4 193
e 4 43
e 4 77
e 4 110
e 4 195
e 4 20
e 4 85
e 4 58
e 4 27
e 4 90
e 4 62
e 4 149
e 5 64
e 5 22
e 5 37
e 5 102
e 5 73
e 5 43
e 5 76
e 5 93
e 5 15
e 5 140
e 5 67
e 5 171
e 5 54
e 5 26
e 5 188
e 5 58
e 5 150
e 6 129
e 6 139
e 6 141
e 6 149
e 6 25
e 6 154
e 6 161
e 6 34
e 6 35
e 6 38
e 6 169
e 6 171
e 6 46
e 6 58
e 6 60
e 6 66
e 6 68
e 6 69
e 6 71
e 6 79
e 6 80
e 6 81
e 6 163
e 6 84
e 6 89
e 6 109
e 6 117
e 6 123
e 7 102
e 7 168
e 7 169
e 7 74
e 7 189
e 7 48
e 7 152
e 7 195
e 7 52
e 7 87
e 7 88
e 7 187
e 7 170
e 7 158
e 8 195
e 8 36
e 8 165
e 8 105
e 8 106
e 8 183
e 8 46
e 8 80
e 8 147
e 8 117
e 8 23
e 8 154
e 8 186
e 8 197
e 9 194
e 9 11
e 9 100
e 9 138
e 9 75
e 9 109
e 9 79
e 9 80
e 9 141
e 9 178
e 9 182
e 9 170
e 9 57
e 9 122
e 9 157
e 9 185
e 10 138
e 10 12
e 10 141
e 10 149
e 10 23
e 10 25
e 10 158
e 10 161
e 10 35
e 10 164
e 10 178
e 10 53
e 10 186
e 10 187
e 10 181
e 10 71
e 10 200
e 10 81
e 10 83
e 10 93
e 10 97
e 10 98
e 10 104
e 10 105
e 10 108
e 10 112
e 10 118
e 10 119
e 10 191
e 11 130
e 11 131
e 11 138
e 11 146
e 11 152
e 11 32
e 11 161
e 11 42
e 11 45
e 11 51
e 11 53
e 11 137
e 11 185
e 11 71
e 11 75
e 11 79
e 11 93
e 11 100
e 11 102
e 11 106
e 11 108
e 11 183
e 11 122
e 11 170
e 12 200
e 12 99
e 12 165
e 12 146
e 12 113
e 12 40
e 12 188
e 12 135
e 12 76
e 12 77
e 12 175
e 12 48
e 12 72
e 12 114
e 12 155
e 12 180
e 12 136
e 12 123
e 12 28
e 12 199
e 13 135
e 13 137
e 13 19
e 13 25
e 13 185
e 13 162
e 13 165
e 13 167
e 13 171
e 13 173
e 13 57
e 13 64
e 13 196
e 13 78
e 13 80
e 13 87
e 13 95
e 13 112
e 13 114
e 13 115
e 13 118
e 14 32
e 14 129
e 14 130
e 14 163
e 14 36
e 14 70
e 14 38
e 14 40
e 14 105
e 14 43
e 14 45
e 14 48
e 14 19
e 14 20
e 14 53
e 14 150
e 14 151
e 14 160
e 14 153
e 14 92
e 14 191
e 15 64
e 15 149
e 15 66
e 15 169
e 15 106
e 15 107
e 15 46
e 15 18
e 15 115
e 15 180
e 15 21
e 15 119
e 15 56
e 15 185
e 15 95
e 15 170
e 15 158
e 15 63
e 16 191
e 16 35
e 16 164
e 16 134
e 16 136
e 16 73
e 16 107
e 16 77
e 16 194
e 16 200
e 16 82
e 16 99
e 16 84
e 16 22
e 16 152
e 16 90
e 16 91
e 16 29
e 16 31
e 17 96
e 17 34
e 17 139
e 17 168
e 17 107
e 17 46
e 17 143
e 17 144
e 17 120
e 17 18
e 17 142
e 17 121
e 17 24
e 17 57
e 17 63
e 18 137
e 18 138
e 18 139
e 18 140
e 18 141
e 18 153
e 18 24
e 18 25
e 18 154
e 18 156
e 18 31
e 18 35
e 18 165
e 18 176
e 18 49
e 18 181
e 18 184
e 18 64
e 18 66
e 18 197
e 18 199
e 18 77
e 18 83
e 18 97
e 18 105
e 18 115
e 18 120
e 18 121
e 18 123
e 19 66
e 19 36
e 19 134
e 19 40
e 19 43
e 19 168
e 19 116
e 19 119
e 19 153
e 19 127
e 20 130
e 20 140
e 20 152
e 20 159
e 20 32
e 20 161
e 20 163
e 20 173
e 20 183
e 20 185
e 20 191
e 20 192
e 20 198
e 20 73
e 20 90
e 20 101
e 20 106
e 20 107
e 20 116
e 20 124
e 21 179
e 21 134
e 21 135
e 21 149
e 21 26
e 21 29
e 21 36
e 21 38
e 21 41
e 21 172
e 21 47
e 21 51
e 21 54
e 21 183
e 21 56
e 21 186
e 21 60
e 21 192
e 21 66
e 21 72
e 21 82
e 21 84
e 21 96
e 21 98
e 21 166
e 21 118
e 22 84
e 22 33
e 22 99
e 22 132
e 22 40
e 22 42
e 22 75
e 22 44
e 22 45
e 22 174
e 22 113
e 22 52
e 22 53
e 22 150
e 22 185
e 22 57
e 22 139
e 23 130
e 23 132
e 23 197
e 23 198
e 23 71
e 23 105
e 23 183
e 23 83
e 23 55
e 23 169
e 23 189
e 23 158
e 24 160
e 24 34
e 24 81
e 24 139
e 24 66
e 24 46
e 24 143
e 24 157
e 24 85
e 24 186
e 24 57
e 24 90
e 24 122
e 24 31
e 25 134
e 25 139
e 25 147
e 25 154
e 25 28
e 25 29
e 25 35
e 25 164
e 25 170
e 25 184
e 25 186
e 25 61
e 25 62
e 25 65
e 25 195
e 25 196
e 25 77
e 25 78
e 25 83
e 25 89
e 25 97
e 25 115
e 25 116
e 25 124
e 26 130
e 26 134
e 26 141
e 26 145
e 26 150
e 26 151
e 26 29
e 26 158
e 26 39
e 26 172
e 26 175
e 26 59
e 26 61
e 26 64
e 26 193
e 26 197
e 26 83
e 26 84
e 26 91
e 26 104
e 26 114
e 26 127
e 27 193
e 27 110
e 27 80
e 27 81
e 27 82
e 27 55
e 27 60
e 27 62
e 27 159
e 28 32
e 28 130
e 28 195
e 28 38
e 28 129
e 28 72
e 28 76
e 28 200
e 28 194
e 28 142
e 28 81
e 28 120
e 28 57
e 28 136
e 28 155
e 28 60
e 28 189
e 28 137
e 29 194
e 29 35
e 29 181
e 29 73
e 29 187
e 29 113
e 29 178
e 29 131
e 29 148
e 29 56
e 29 91
e 29 157
e 29 85
e 30 160
e 30 192
e 30 130
e 30 155
e 30 68
e 30 69
e 30 136
e 30 162
e 30 146
e 30 86
e 30 121
e 30 123
e 31 128
e 31 133
e 31 129
e 31 146
e 31 157
e 31 32
e 31 167
e 31 168
e 31 135
e 31 44
e 31 53
e 31 61
e 31 62
e 31 196
e 31 198
e 31 76
e 31 94
e 31 101
e 31 105
e 31 111
e 31 113
e 32 129
e 32 104
e 32 42
e 32 108
e 32 47
e 32 184
e 32 89
e 32 59
e 33 96
e 33 97
e 33 66
e 33 134
e 33 70
e 33 192
e 33 77
e 33 174
e 33 109
e 33 80
e 33 113
e 33 51
e 33 84
e 33 158
e 33 154
e 33 150
e 34 131
e 34 136
e 34 139
e 34 143
e 34 144
e 34 158
e 34 165
e 34 199
e 34 45
e 34 48
e 34 53
e 34 184
e 34 57
e 34 189
e 34 63
e 34 71
e 34 90
e 34 122
e 35 194
e 35 123
e 35 36
e 35 198
e 35 73
e 35 141
e 35 189
e 35 81
e 35 195
e 35 74
e 35 149
e 35 121
e 35 91
e 36 140
e 36 148
e 36 154
e 36 164
e 36 165
e 36 39
e 36 170
e 36 44
e 36 176
e 36 179
e 36 52
e 36 184
e 36 57
e 36 186
e 36 59
e 36 65
e 36 81
e 36 84
e 36 100
e 36 110
e 36 119
e 36 123
e 37 112
e 37 163
e 37 71
e 37 136
e 37 42
e 37 66
e 37 80
e 37 113
e 37 82
e 37 144
e 37 148
e 37 85
e 37 86
e 37 185
e 37 98
e 37 92
e 37 122
e 37 190
e 38 128
e 38 161
e 38 66
e 38 187
e 38 168
e 38 148
e 38 174
e 38 116
e 38 137
e 38 88
e 38 89
e 38 59
e 38 60
e 38 169
e 38 85
e 39 67
e 39 198
e 39 161
e 39 41
e 39 142
e 39 164
e 39 188
e 39 180
e 39 187
e 39 182
e 39 89
e 39 152
e 39 57
e 39 59
e 39 60
e 39 122
e 39 158
e 39 127
e 40 144
e 40 148
e 40 152
e 40 153
e 40 163
e 40 198
e 40 43
e 40 52
e 40 181
e 40 54
e 40 55
e 40 184
e 40 53
e 40 70
e 40 183
e 40 85
e 40 92
e 40 96
e 40 114
e 40 63
e 41 64
e 41 129
e 41 162
e 41 67
e 41 132
e 41 71
e 41 74
e 41 192
e 41 77
e 41 175
e 41 144
e 41 81
e 41 75
e 41 83
e 41 150
e 41 89
e 41 59
e 41 190
e 42 64
e 42 135
e 42 106
e 42 98
e 42 173
e 42 178
e 42 56
e 42 175
e 42 155
e 42 92
e 42 157
e 43 193
e 43 162
e 43 67
e 43 109
e 43 81
e 43 52
e 43 89
e 43 152
e 43 84
e 43 153
e 43 191
e 43 188
e 43 189
e 43 94
e 43 165
e 44 128
e 44 132
e 44 150
e 44 134
e 44 149
e 44 159
e 44 59
e 44 63
e 44 68
e 44 71
e 44 72
e 44 78
e 44 80
e 44 89
e 44 102
e 44 104
e 44 105
e 44 109
e 44 110
e 44 112
e 44 116
e 44 117
e 45 171
e 45 192
e 45 166
e 45 104
e 45 138
e 45 111
e 45 112
e 45 131
e 45 116
e 45 158
e 45 184
e 45 180
e 45 170
e 45 94
e 46 176
e 46 162
e 46 164
e 46 135
e 46 124
e 46 76
e 46 168
e 46 144
e 46 51
e 46 177
e 46 118
e 46 137
e 46 88
e 46 143
e 46 92
e 46 158
e 47 99
e 47 179
e 47 134
e 47 161
e 47 64
e 47 144
e 47 184
e 47 83
e 47 182
e 47 152
e 47 58
e 47 181
e 47 158
e 47 159
e 48 195
e 48 168
e 48 74
e 48 103
e 48 109
e 48 78
e 48 141
e 48 80
e 48 145
e 48 167
e 48 84
e 48 184
e 48 93
e 48 127
e 49 128
e 49 194
e 49 198
e 49 118
e 49 151
e 49 186
e 49 188
e 49 158
e 50 194
e 50 132
e 50 71
e 50 73
e 50 170
e 50 182
e 50 105
e 50 196
e 50 154
e 50 186
e 51 64
e 51 67
e 51 131
e 51 101
e 51 181
e 51 174
e 51 143
e 51 81
e 51 99
e 51 185
e 51 132
e 51 122
e 51 123
e 51 149
e 52 68
e 52 114
e 52 84
e 52 119
e 52 57
e 53 132
e 53 144
e 53 170
e 53 172
e 53 176
e 53 177
e 53 180
e 53 184
e 53 138
e 53 72
e 53 80
e 53 93
e 53 94
e 53 108
e 53 112
e 53 114
e 53 115
e 54 132
e 54 141
e 54 149
e 54 156
e 54 163
e 54 173
e 54 55
e 54 188
e 54 189
e 54 190
e 54 65
e 54 78
e 54 85
e 54 93
e 54 106
e 54 115
e 54 121
e 54 127
e 54 125
e 55 135
e 55 136
e 55 140
e 55 141
e 55 158
e 55 164
e 55 170
e 55 171
e 55 181
e 55 183
e 55 61
e 55 190
e 55 196
e 55 69
e 55 81
e 55 82
e 55 109
e 55 113
e 56 192
e 56 194
e 56 67
e 56 163
e 56 139
e 56 191
e 56 144
e 56 82
e 56 115
e 56 148
e 56 151
e 56 180
e 56 90
e 56 187
e 56 185
e 56 95
e 57 151
e 57 170
e 57 179
e 57 193
e 57 66
e 57 80
e 57 95
e 57 97
e 57 108
e 57 110
e 57 111
e 57 114
e 57 119
e 58 161
e 58 163
e 58 137
e 58 109
e 58 179
e 58 83
e 58 148
e 58 85
e 58 184
e 58 121
e 58 90
e 58 155
e 58 134
e 59 67
e 59 70
e 59 80
e 59 81
e 59 89
e 59 186
e 60 98
e 60 155
e 60 132
e 60 73
e 60 171
e 60 139
e 60 108
e 60 130
e 60 148
e 60 105
e 60 164
e 60 61
e 60 117
e 61 130
e 61 163
e 61 196
e 61 156
e 61 171
e 61 141
e 61 176
e 61 83
e 61 117
e 61 155
e 61 157
e 61 185
e 62 160
e 62 193
e 62 198
e 62 105
e 62 119
e 62 109
e 62 110
e 62 141
e 62 176
e 62 121
e 62 149
e 62 89
e 62 186
e 62 190
e 63 160
e 63 100
e 63 134
e 63 81
e 63 145
e 63 106
e 63 141
e 63 188
e 63 183
e 63 152
e 63 89
e 63 92
e 63 185
e 64 132
e 64 146
e 64 148
e 64 150
e 64 172
e 64 181
e 64 66
e 64 79
e 64 88
e 64 91
e 64 113
e 64 120
e 64 121
e 64 124
e 65 160
e 65 161
e 65 109
e 65 78
e 65 85
e 65 154
e 65 187
e 65 125
e 66 133
e 66 139
e 66 160
e 66 163
e 66 164
e 66 169
e 66 180
e 66 186
e 66 146
e 66 198
e 66 200
e 66 73
e 66 75
e 66 82
e 66 92
e 66 109
e 66 111
e 66 119
e 66 120
e 67 192
e 67 83
e 67 187
e 67 175
e 67 145
e 67 116
e 67 73
e 67 89
e 67 185
e 67 92
e 67 148
e 67 165
e 68 160
e 68 194
e 68 164
e 68 69
e 68 113
e 68 200
e 68 73
e 68 146
e 68 81
e 68 114
e 68 83
e 68 178
e 68 150
e 68 169
e 68 116
e 68 185
e 69 96
e 69 97
e 69 170
e 69 160
e 69 142
e 69 146
e 69 147
e 69 158
e 69 100
e 69 90
e 69 154
e 70 98
e 70 164
e 70 73
e 70 171
e 70 108
e 70 80
e 70 172
e 70 105
e 70 153
e 70 154
e 70 92
e 70 127
e 71 171
e 71 178
e 71 176
e 71 186
e 71 187
e 71 192
e 71 78
e 71 81
e 71 87
e 71 92
e 71 165
e 71 97
e 71 102
e 71 109
e 71 111
e 71 119
e 71 121
e 71 124
e 71 125
e 72 194
e 72 200
e 72 76
e 72 178
e 72 182
e 72 184
e 73 138
e 73 147
e 73 161
e 73 165
e 73 178
e 73 180
e 73 191
e 73 74
e 73 77
e 73 91
e 73 105
e 73 112
e 73 119
e 73 148
e 73 122
e 74 112
e 74 195
e 74 104
e 74 103
e 74 172
e 74 110
e 74 79
e 74 145
e 74 114
e 74 131
e 74 105
e 74 153
e 74 183
e 74 94
e 74 191
e 75 107
e 75 198
e 75 167
e 75 168
e 75 142
e 75 176
e 75 200
e 75 114
e 75 89
e 75 124
e 75 157
e 76 162
e 76 168
e 76 200
e 76 141
e 76 136
e 76 119
e 76 127
e 77 131
e 77 137
e 77 147
e 77 154
e 77 164
e 77 168
e 77 170
e 77 184
e 77 198
e 77 81
e 77 84
e 77 92
e 77 94
e 77 97
e 77 101
e 77 111
e 77 117
e 77 120
e 77 124
e 77 125
e 78 107
e 78 154
e 78 81
e 78 85
e 78 120
e 78 90
e 78 125
e 78 149
e 79 129
e 79 109
e 79 147
e 79 154
e 79 186
e 79 122
e 79 155
e 79 138
e 80 129
e 80 154
e 80 157
e 80 171
e 80 180
e 80 188
e 80 196
e 80 197
e 80 81
e 80 87
e 80 93
e 80 95
e 80 110
e 80 118
e 80 122
e 80 125
e 80 127
e 81 128
e 81 130
e 81 139
e 81 154
e 81 161
e 81 165
e 81 168
e 81 176
e 81 181
e 81 83
e 81 85
e 81 86
e 81 113
e 81 118
e 81 191
e 81 124
e 82 96
e 82 168
e 82 171
e 82 192
e 82 110
e 82 175
e 82 115
e 82 183
e 82 133
e 83 128
e 83 131
e 83 150
e 83 172
e 83 86
e 83 103
e 83 108
e 83 146
e 83 110
e 83 118
e 83 124
e 83 125
e 84 128
e 84 137
e 84 142
e 84 147
e 84 165
e 84 174
e 84 198
e 84 176
e 84 90
e 84 109
e 84 113
e 85 135
e 85 137
e 85 144
e 85 147
e 85 175
e 85 171
e 85 157
e 85 97
e 85 102
e 85 108
e 85 117
e 85 120
e 85 121
e 85 125
e 86 197
e 86 101
e 86 113
e 86 200
e 86 124
e 86 93
e 87 132
e 87 146
e 87 151
e 87 157
e 87 160
e 87 199
e 87 173
e 87 187
e 87 189
e 87 190
e 87 191
e 87 88
e 87 89
e 87 93
e 87 96
e 87 100
e 87 102
e 87 108
e 87 120
e 87 127
e 88 130
e 88 187
e 88 102
e 88 169
e 88 119
e 88 189
e 88 176
e 88 142
e 88 154
e 88 155
e 88 186
e 88 181
e 89 130
e 89 138
e 89 145
e 89 146
e 89 152
e 89 173
e 89 182
e 89 96
e 89 99
e 89 105
e 89 115
e 89 169
e 90 163
e 90 168
e 90 187
e 90 111
e 90 149
e 90 118
e 90 121
e 90 143
e 90 94
e 90 197
e 91 144
e 91 130
e 91 100
e 91 198
e 91 195
e 91 189
e 91 149
e 91 182
e 91 186
e 92 129
e 92 131
e 92 139
e 92 144
e 92 145
e 92 159
e 92 185
e 92 193
e 92 98
e 92 105
e 92 117
e 92 120
e 93 160
e 93 194
e 93 164
e 93 103
e 93 109
e 93 114
e 93 147
e 93 148
e 93 185
e 93 189
e 93 126
e 94 192
e 94 178
e 94 133
e 94 135
e 94 200
e 94 112
e 94 167
e 94 131
e 94 182
e 94 121
e 94 155
e 94 154
e 94 199
e 95 129
e 95 130
e 95 99
e 95 182
e 95 142
e 95 120
e 95 115
e 95 180
e 95 150
e 95 157
e 96 192
e 96 98
e 96 167
e 96 140
e 96 174
e 96 179
e 96 122
e 96 156
e 97 131
e 97 133
e 97 134
e 97 145
e 97 157
e 97 160
e 97 162
e 97 165
e 97 177
e 97 178
e 97 110
e 97 111
e 97 124
e 98 195
e 99 128
e 99 166
e 99 172
e 99 110
e 99 146
e 99 185
e 99 123
e 100 128
e 100 192
e 100 130
e 100 134
e 100 106
e 100 109
e 100 152
e 100 191
e 100 122
e 100 157
e 100 126
e 101 194
e 101 199
e 101 106
e 101 140
e 101 173
e 101 119
e 101 191
e 101 190
e 102 198
e 102 130
e 102 187
e 102 134
e 102 106
e 102 122
e 102 184
e 102 199
e 103 164
e 103 134
e 103 136
e 103 169
e 103 189
e 103 148
e 103 158
e 103 120
e 103 186
e 103 123
e 103 126
e 103 127
e 104 129
e 104 130
e 104 131
e 104 132
e 104 166
e 104 111
e 104 170
e 104 154
e 104 119
e 104 123
e 104 124
e 104 127
e 105 137
e 105 144
e 105 152
e 105 159
e 105 198
e 105 183
e 105 197
e 105 187
e 105 106
e 105 113
e 106 160
e 106 139
e 106 177
e 106 196
e 106 152
e 106 180
e 106 143
e 106 134
e 107 160
e 107 133
e 107 198
e 107 200
e 107 115
e 107 142
e 107 148
e 107 122
e 107 157
e 108 194
e 108 171
e 108 198
e 108 172
e 108 142
e 108 177
e 108 114
e 108 159
e 109 132
e 109 136
e 109 141
e 109 156
e 109 166
e 109 173
e 109 182
e 109 185
e 109 119
e 110 193
e 110 178
e 110 175
e 110 150
e 110 186
e 110 170
e 111 144
e 111 147
e 111 150
e 111 157
e 111 166
e 111 169
e 111 176
e 111 190
e 111 192
e 111 131
e 111 119
e 111 121
e 112 129
e 112 132
e 112 133
e 112 135
e 112 139
e 112 173
e 112 147
e 112 167
e 112 169
e 112 183
e 112 184
e 112 186
e 112 138
e 112 190
e 112 195
e 112 115
e 113 128
e 113 132
e 113 138
e 113 145
e 113 149
e 113 159
e 113 168
e 113 174
e 113 193
e 113 199
e 113 127
e 114 130
e 114 142
e 114 150
e 114 152
e 114 166
e 114 171
e 114 172
e 114 177
e 114 184
e 114 186
e 114 194
e 114 141
e 114 122
e 115 128
e 115 131
e 115 155
e 115 156
e 115 157
e 115 161
e 115 164
e 115 180
e 115 189
e 115 117
e 115 122
e 115 123
e 115 127
e 116 179
e 116 135
e 116 138
e 116 143
e 116 177
e 116 117
e 116 121
e 116 159
e 117 198
e 117 130
e 117 131
e 117 134
e 117 171
e 117 200
e 117 183
e 117 184
e 117 122
e 117 158
e 117 159
e 118 128
e 118 165
e 118 137
e 118 151
e 118 120
e 118 185
e 118 188
e 119 167
e 119 121
e 119 188
e 120 192
e 120 131
e 120 157
e 120 161
e 120 177
e 120 181
e 120 191
e 120 196
e 120 199
e 120 200
e 120 121
e 120 125
e 121 131
e 121 132
e 121 138
e 121 149
e 121 168
e 121 170
e 121 180
e 121 122
e 121 123
e 121 124
e 121 125
e 121 126
e 122 131
e 122 138
e 122 152
e 122 148
e 122 159
e 122 164
e 122 166
e 122 168
e 122 181
e 122 194
e 123 161
e 123 162
e 123 140
e 123 185
e 123 153
e 123 191
e 124 128
e 124 132
e 124 134
e 124 143
e 124 149
e 124 150
e 124 163
e 124 165
e 124 166
e 124 168
e 124 179
e 124 184
e 124 185
e 124 195
e 125 130
e 125 195
e 125 198
e 125 168
e 125 175
e 125 186
e 125 181
e 126 164
e 126 132
e 126 169
e 126 148
e 126 152
e 127 128
e 127 164
e 127 177
e 127 183
e 127 148
e 127 171
e 127 154
e 128 161
e 128 198
e 128 188
e 128 147
e 128 199
e 128 141
e 128 151
e 129 165
e 129 139
e 129 137
e 129 158
e 130 132
e 130 151
e 130 155
e 130 156
e 130 170
e 130 176
e 130 185
e 130 191
e 131 144
e 131 148
e 131 152
e 131 154
e 131 156
e 131 160
e 131 161
e 131 163
e 131 166
e 131 189
e 131 192
e 131 194
e 132 192
e 132 145
e 132 155
e 132 163
e 132 164
e 132 165
e 132 175
e 132 188
e 133 192
e 133 135
e 133 167
e 134 150
e 134 152
e 134 165
e 134 167
e 134 186
e 134 196
e 134 200
e 135 195
e 135 166
e 135 167
e 135 151
e 135 190
e 135 178
e 135 182
e 135 170
e 135 155
e 136 166
e 136 138
e 136 141
e 136 172
e 136 180
e 136 153
e 137 198
e 137 195
e 137 166
e 137 175
e 137 189
e 137 190
e 137 181
e 138 162
e 138 183
e 138 159
e 139 143
e 139 189
e 140 165
e 140 191
e 140 195
e 140 198
e 140 173
e 140 181
e 140 150
e 140 152
e 141 161
e 141 176
e 142 197
e 142 198
e 142 183
e 142 184
e 142 157
e 143 165
e 143 175
e 143 189
e 143 190
e 144 176
e 144 197
e 144 158
e 145 192
e 145 161
e 145 172
e 145 195
e 145 182
e 145 170
e 146 160
e 146 194
e 146 189
e 146 197
e 146 183
e 147 170
e 147 171
e 147 173
e 147 179
e 147 191
e 148 171
e 148 189
e 148 164
e 149 162
e 149 168
e 149 174
e 149 184
e 149 157
e 150 163
e 150 168
e 150 181
e 150 188
e 150 161
e 151 161
e 151 199
e 151 162
e 151 181
e 151 188
e 152 200
e 152 156
e 153 162
e 153 178
e 153 190
e 154 156
e 154 182
e 154 195
e 155 196
e 155 179
e 155 167
e 155 173
e 155 164
e 156 163
e 156 169
e 156 171
e 156 181
e 156 183
e 156 196
e 156 191
e 157 161
e 157 174
e 157 181
e 157 182
e 157 198
e 158 166
e 158 170
e 158 171
e 158 176
e 158 185
e 158 190
e 159 180
e 159 177
e 159 200
e 159 173
e 159 174
e 159 188
e 159 184
e 160 192
e 160 200
e 160 162
e 160 164
e 161 165
e 161 179
e 161 184
e 161 190
e 162 191
e 162 165
e 162 192
e 162 186
e 162 183
e 162 181
e 163 171
e 163 180
e 163 183
e 163 184
e 163 190
e 163 196
e 163 198
e 164 194
e 164 184
e 164 185
e 164 200
e 164 183
e 165 171
e 165 166
e 165 173
e 165 179
e 165 180
e 165 188
e 165 193
e 165 200
e 166 198
e 166 173
e 166 191
e 166 182
e 167 190
e 168 180
e 168 191
e 168 192
e 168 193
e 169 187
e 170 171
e 170 196
e 171 185
e 171 192
e 171 196
e 172 177
e 172 186
e 173 191
e 173 187
e 173 200
e 173 176
e 173 195
e 173 183
e 174 192
e 175 192
e 175 198
e 175 200
e 175 189
e 175 182
e 175 188
e 175 190
e 177 186
e 179 192
e 179 189
e 179 184
e 179 186
e 180 192
e 180 184
e 181 190
e 181 191
e 181 196
e 181 199
e 182 198
e 182 194
e 182 186
e 182 183
e 183 192
e 183 193
e 183 197
e 184 187
e 184 190
e 184 192
e 184 197
e 185 196
e 185 187
e 185 198
e 186 194
e 188 191
e 189 190
e 192 193
e 197 198
e 197 200
